Set parameter TokenServer to value "hpc-licenses.hpcc.usc.edu"
Set parameter TimeLimit to value 3600
Gurobi Optimizer version 9.5.1 build v9.5.1rc2 (linux64)
Thread count: 20 physical cores, 20 logical processors, using up to 20 threads
Optimize a model with 6007 rows, 4529 columns and 24534 nonzeros
Model fingerprint: 0x74b7e066
Variable types: 4506 continuous, 23 integer (23 binary)
Coefficient statistics:
  Matrix range     [1e+00, 1e+00]
  Objective range  [1e-03, 1e+00]
  Bounds range     [1e+00, 1e+00]
  RHS range        [1e+00, 2e+02]
Presolve removed 1520 rows and 1515 columns
Presolve time: 0.09s
Presolved: 4487 rows, 3014 columns, 21975 nonzeros
Variable types: 2994 continuous, 20 integer (20 binary)
Found heuristic solution: objective 278.7997590

Root relaxation: objective 2.894132e+02, 2745 iterations, 0.14 seconds (0.15 work units)

    Nodes    |    Current Node    |     Objective Bounds      |     Work
 Expl Unexpl |  Obj  Depth IntInf | Incumbent    BestBd   Gap | It/Node Time

     0     0  289.41318    0    2  278.79976  289.41318  3.81%     -    0s
     0     0  289.36924    0    2  278.79976  289.36924  3.79%     -    0s
     0     0  289.22851    0    2  278.79976  289.22851  3.74%     -    0s
H    0     0                     279.5329489  289.22851  3.47%     -    0s
     0     0  289.08951    0    2  279.53295  289.08951  3.42%     -    0s
     0     0  289.07149    0    2  279.53295  289.07149  3.41%     -    0s
     0     0  288.96132    0    2  279.53295  288.96132  3.37%     -    0s
     0     0  288.69185    0    3  279.53295  288.69185  3.28%     -    0s
H    0     0                     287.6112277  288.69185  0.38%     -    0s
     0     0  288.68296    0    3  287.61123  288.68296  0.37%     -    0s
     0     0  288.68296    0    2  287.61123  288.68296  0.37%     -    1s
     0     0  288.68296    0    2  287.61123  288.68296  0.37%     -    1s
     0     0  288.68296    0    2  287.61123  288.68296  0.37%     -    1s
     0     0  288.68296    0    4  287.61123  288.68296  0.37%     -    1s
H    0     0                     288.4581070  288.68296  0.08%     -    1s
     0     0  288.45811    0    2  288.45811  288.45811  0.00%     -    2s

Cutting planes:
  Gomory: 5
  MIR: 832
  Flow cover: 8
  RLT: 12
  Relax-and-lift: 4

Explored 1 nodes (5441 simplex iterations) in 2.01 seconds (0.92 work units)
Thread count was 20 (of 20 available processors)

Solution count 4: 288.458 287.611 279.533 278.8 

Optimal solution found (tolerance 1.00e-04)
Best objective 2.884581069525e+02, best bound 2.884581069525e+02, gap 0.0000%



#########node  1
V1.7
#########node  2
0.0,1.0
#########node  3
1.0,0.0


Total Solving Time 2.4112818241119385
obj value 288.45810695246496
Policy Regret train (Sum) 2.0340319405192426
Best Treatment Found train (%) 82.8
treatment classification acc train (%) 65.60000000000001
Policy Regret test (Sum) 23.056351074388168
Best Treatment Found test (%) 86.09
treatment classification acc test (%) 65.25
